c File: flat50_3_0.col
c
c SOURCE: Joseph Culberson (joe@cs.ualberta.ca)
c DESCRIPTION: Quasi-random coloring problem
c              generated with flatness = 0
c                             probability = 0.139
c                             known coloring = 3
c                             random seed = 1883
c              Creation Date:  Tue Jun  9 12:20:15 1998
c Maximum degree = 8 Minimum degree = 0
c p edge 50 115
c cnf created by edge2cnf
p cnf 150 545
-1 -2 0
-1 -3 0
-2 -3 0
1 2 3 0
-4 -5 0
-4 -6 0
-5 -6 0
4 5 6 0
-7 -8 0
-7 -9 0
-8 -9 0
7 8 9 0
-10 -11 0
-10 -12 0
-11 -12 0
10 11 12 0
-13 -14 0
-13 -15 0
-14 -15 0
13 14 15 0
-16 -17 0
-16 -18 0
-17 -18 0
16 17 18 0
-19 -20 0
-19 -21 0
-20 -21 0
19 20 21 0
-22 -23 0
-22 -24 0
-23 -24 0
22 23 24 0
-25 -26 0
-25 -27 0
-26 -27 0
25 26 27 0
-28 -29 0
-28 -30 0
-29 -30 0
28 29 30 0
-31 -32 0
-31 -33 0
-32 -33 0
31 32 33 0
-34 -35 0
-34 -36 0
-35 -36 0
34 35 36 0
-37 -38 0
-37 -39 0
-38 -39 0
37 38 39 0
-40 -41 0
-40 -42 0
-41 -42 0
40 41 42 0
-43 -44 0
-43 -45 0
-44 -45 0
43 44 45 0
-46 -47 0
-46 -48 0
-47 -48 0
46 47 48 0
-49 -50 0
-49 -51 0
-50 -51 0
49 50 51 0
-52 -53 0
-52 -54 0
-53 -54 0
52 53 54 0
-55 -56 0
-55 -57 0
-56 -57 0
55 56 57 0
-58 -59 0
-58 -60 0
-59 -60 0
58 59 60 0
-61 -62 0
-61 -63 0
-62 -63 0
61 62 63 0
-64 -65 0
-64 -66 0
-65 -66 0
64 65 66 0
-67 -68 0
-67 -69 0
-68 -69 0
67 68 69 0
-70 -71 0
-70 -72 0
-71 -72 0
70 71 72 0
-73 -74 0
-73 -75 0
-74 -75 0
73 74 75 0
-76 -77 0
-76 -78 0
-77 -78 0
76 77 78 0
-79 -80 0
-79 -81 0
-80 -81 0
79 80 81 0
-82 -83 0
-82 -84 0
-83 -84 0
82 83 84 0
-85 -86 0
-85 -87 0
-86 -87 0
85 86 87 0
-88 -89 0
-88 -90 0
-89 -90 0
88 89 90 0
-91 -92 0
-91 -93 0
-92 -93 0
91 92 93 0
-94 -95 0
-94 -96 0
-95 -96 0
94 95 96 0
-97 -98 0
-97 -99 0
-98 -99 0
97 98 99 0
-100 -101 0
-100 -102 0
-101 -102 0
100 101 102 0
-103 -104 0
-103 -105 0
-104 -105 0
103 104 105 0
-106 -107 0
-106 -108 0
-107 -108 0
106 107 108 0
-109 -110 0
-109 -111 0
-110 -111 0
109 110 111 0
-112 -113 0
-112 -114 0
-113 -114 0
112 113 114 0
-115 -116 0
-115 -117 0
-116 -117 0
115 116 117 0
-118 -119 0
-118 -120 0
-119 -120 0
118 119 120 0
-121 -122 0
-121 -123 0
-122 -123 0
121 122 123 0
-124 -125 0
-124 -126 0
-125 -126 0
124 125 126 0
-127 -128 0
-127 -129 0
-128 -129 0
127 128 129 0
-130 -131 0
-130 -132 0
-131 -132 0
130 131 132 0
-133 -134 0
-133 -135 0
-134 -135 0
133 134 135 0
-136 -137 0
-136 -138 0
-137 -138 0
136 137 138 0
-139 -140 0
-139 -141 0
-140 -141 0
139 140 141 0
-142 -143 0
-142 -144 0
-143 -144 0
142 143 144 0
-145 -146 0
-145 -147 0
-146 -147 0
145 146 147 0
-148 -149 0
-148 -150 0
-149 -150 0
148 149 150 0
-79 -1 0
-80 -2 0
-81 -3 0
-97 -1 0
-98 -2 0
-99 -3 0
-109 -1 0
-110 -2 0
-111 -3 0
-115 -1 0
-116 -2 0
-117 -3 0
-58 -4 0
-59 -5 0
-60 -6 0
-79 -4 0
-80 -5 0
-81 -6 0
-85 -4 0
-86 -5 0
-87 -6 0
-118 -4 0
-119 -5 0
-120 -6 0
-136 -4 0
-137 -5 0
-138 -6 0
-61 -7 0
-62 -8 0
-63 -9 0
-64 -7 0
-65 -8 0
-66 -9 0
-115 -7 0
-116 -8 0
-117 -9 0
-145 -7 0
-146 -8 0
-147 -9 0
-82 -10 0
-83 -11 0
-84 -12 0
-115 -10 0
-116 -11 0
-117 -12 0
-130 -10 0
-131 -11 0
-132 -12 0
-52 -13 0
-53 -14 0
-54 -15 0
-76 -13 0
-77 -14 0
-78 -15 0
-118 -13 0
-119 -14 0
-120 -15 0
-133 -13 0
-134 -14 0
-135 -15 0
-67 -16 0
-68 -17 0
-69 -18 0
-88 -16 0
-89 -17 0
-90 -18 0
-97 -16 0
-98 -17 0
-99 -18 0
-100 -19 0
-101 -20 0
-102 -21 0
-130 -19 0
-131 -20 0
-132 -21 0
-136 -19 0
-137 -20 0
-138 -21 0
-139 -19 0
-140 -20 0
-141 -21 0
-145 -19 0
-146 -20 0
-147 -21 0
-103 -22 0
-104 -23 0
-105 -24 0
-112 -22 0
-113 -23 0
-114 -24 0
-139 -22 0
-140 -23 0
-141 -24 0
-145 -22 0
-146 -23 0
-147 -24 0
-79 -25 0
-80 -26 0
-81 -27 0
-85 -25 0
-86 -26 0
-87 -27 0
-112 -25 0
-113 -26 0
-114 -27 0
-121 -25 0
-122 -26 0
-123 -27 0
-61 -28 0
-62 -29 0
-63 -30 0
-67 -28 0
-68 -29 0
-69 -30 0
-85 -28 0
-86 -29 0
-87 -30 0
-91 -28 0
-92 -29 0
-93 -30 0
-130 -28 0
-131 -29 0
-132 -30 0
-142 -28 0
-143 -29 0
-144 -30 0
-67 -31 0
-68 -32 0
-69 -33 0
-73 -31 0
-74 -32 0
-75 -33 0
-94 -31 0
-95 -32 0
-96 -33 0
-100 -31 0
-101 -32 0
-102 -33 0
-106 -31 0
-107 -32 0
-108 -33 0
-100 -34 0
-101 -35 0
-102 -36 0
-112 -34 0
-113 -35 0
-114 -36 0
-61 -37 0
-62 -38 0
-63 -39 0
-64 -37 0
-65 -38 0
-66 -39 0
-82 -37 0
-83 -38 0
-84 -39 0
-112 -37 0
-113 -38 0
-114 -39 0
-118 -37 0
-119 -38 0
-120 -39 0
-127 -37 0
-128 -38 0
-129 -39 0
-142 -37 0
-143 -38 0
-144 -39 0
-85 -40 0
-86 -41 0
-87 -42 0
-97 -40 0
-98 -41 0
-99 -42 0
-145 -40 0
-146 -41 0
-147 -42 0
-73 -43 0
-74 -44 0
-75 -45 0
-100 -43 0
-101 -44 0
-102 -45 0
-103 -43 0
-104 -44 0
-105 -45 0
-106 -43 0
-107 -44 0
-108 -45 0
-67 -46 0
-68 -47 0
-69 -48 0
-79 -46 0
-80 -47 0
-81 -48 0
-88 -46 0
-89 -47 0
-90 -48 0
-91 -46 0
-92 -47 0
-93 -48 0
-103 -46 0
-104 -47 0
-105 -48 0
-118 -46 0
-119 -47 0
-120 -48 0
-127 -46 0
-128 -47 0
-129 -48 0
-61 -49 0
-62 -50 0
-63 -51 0
-64 -49 0
-65 -50 0
-66 -51 0
-76 -49 0
-77 -50 0
-78 -51 0
-88 -49 0
-89 -50 0
-90 -51 0
-106 -49 0
-107 -50 0
-108 -51 0
-109 -49 0
-110 -50 0
-111 -51 0
-142 -49 0
-143 -50 0
-144 -51 0
-112 -52 0
-113 -53 0
-114 -54 0
-130 -52 0
-131 -53 0
-132 -54 0
-121 -58 0
-122 -59 0
-123 -60 0
-124 -58 0
-125 -59 0
-126 -60 0
-136 -58 0
-137 -59 0
-138 -60 0
-142 -58 0
-143 -59 0
-144 -60 0
-133 -61 0
-134 -62 0
-135 -63 0
-148 -61 0
-149 -62 0
-150 -63 0
-136 -67 0
-137 -68 0
-138 -69 0
-142 -67 0
-143 -68 0
-144 -69 0
-145 -67 0
-146 -68 0
-147 -69 0
-148 -67 0
-149 -68 0
-150 -69 0
-118 -70 0
-119 -71 0
-120 -72 0
-124 -70 0
-125 -71 0
-126 -72 0
-130 -70 0
-131 -71 0
-132 -72 0
-121 -73 0
-122 -74 0
-123 -75 0
-130 -73 0
-131 -74 0
-132 -75 0
-103 -76 0
-104 -77 0
-105 -78 0
-106 -76 0
-107 -77 0
-108 -78 0
-109 -76 0
-110 -77 0
-111 -78 0
-130 -79 0
-131 -80 0
-132 -81 0
-139 -79 0
-140 -80 0
-141 -81 0
-133 -82 0
-134 -83 0
-135 -84 0
-103 -85 0
-104 -86 0
-105 -87 0
-118 -85 0
-119 -86 0
-120 -87 0
-109 -88 0
-110 -89 0
-111 -90 0
-124 -88 0
-125 -89 0
-126 -90 0
-133 -88 0
-134 -89 0
-135 -90 0
-115 -91 0
-116 -92 0
-117 -93 0
-121 -91 0
-122 -92 0
-123 -93 0
-133 -91 0
-134 -92 0
-135 -93 0
-145 -91 0
-146 -92 0
-147 -93 0
-136 -94 0
-137 -95 0
-138 -96 0
-148 -94 0
-149 -95 0
-150 -96 0
-124 -97 0
-125 -98 0
-126 -99 0
-142 -97 0
-143 -98 0
-144 -99 0
-103 -100 0
-104 -101 0
-105 -102 0
-145 -100 0
-146 -101 0
-147 -102 0
